45640.02 0
0 179 119 137 51 171 153 62 149 58 84 63 42 76 53 90 14 72 38 146 78 122 121 70 187 87 178 12 180 26 23 164 40 83 136 68 106 183 157 15 151 173 64 159 98 30 77 44 165 32 67 13 186 113 19 24 132 46 20 181 163 101 115 99 29 143 1 47 140 91 116 144 135 123 117 4 191 50 118 34 18 195 36 61 92 3 154 43 59 52 176 39 82 2 141 9 8 112 177 54 86 25 162 130 147 94 55 150 27 11 114 105 103 182 81 17 5 142 188 95 85 193 79 75 126 160 134 71 56 156 133 45 145 124 108 131 170 60 111 73 197 107 128 35 158 66 74 198 196 57 175 6 100 189 120 22 109 167 7 65 37 148 185 194 127 190 28 102 110 192 21 184 172 41 10 89 139 16 138 168 88 97 169 48 152 69 96 166 104 31 93 80 33 129 174 49 199 155 125 161 
